param set_len = 24;
param target := 3076034755;
set values := 113703764, 44842211, 92426059, 245124094, 119344321, 72218952, 452253988, 122013353, 467879859, 73747641, 234731711, 395080915, 260767600, 70333508, 153489370, 274313384, 394251214, 163136897, 148353553, 206616495, 9777642, 337925794, 24947512, 109910087, ;
